c A SAT instance generated from a 3-CNF formula that had 20 clauses and 10 variables
p cnf 10 20
-8 3 -7 0
-1 -9 -7 0
-1 2 6 0
1 -4 5 0
-5 -10 -9 0
3 1 2 0
1 10 -9 0
-4 -5 6 0
1 -5 -10 0
6 -1 8 0
-3 6 -4 0
-7 1 10 0
-10 6 5 0
7 -6 4 0
10 -3 -5 0
-6 -10 8 0
7 -1 -4 0
-2 -1 4 0
3 2 -9 0
3 -1 8 0
